Academic license - for non-commercial use only
Set parameter TimeLimit to value 7200

Gurobi Optimizer version 8.0.0 build v8.0.0rc0 (linux64)
Copyright (c) 2018, Gurobi Optimization, LLC

Read LP format model from file la21_flow.lp
Reading time = 2.21 seconds
: 96107 rows, 170301 columns, 4753378 nonzeros
Optimize a model with 96107 rows, 170301 columns and 4753378 nonzeros
Variable types: 0 continuous, 170301 integer (170300 binary)
Coefficient statistics:
  Matrix range     [1e+00, 1e+03]
  Objective range  [1e+00, 1e+00]
  Bounds range     [1e+00, 1e+03]
  RHS range        [1e+00, 1e+00]
Presolve removed 4891 rows and 4302 columns (presolve time = 5s) ...
Presolve removed 8858 rows and 8070 columns (presolve time = 10s) ...
Presolve removed 9275 rows and 8507 columns (presolve time = 16s) ...
Presolve removed 9275 rows and 8507 columns
Presolve time: 17.50s
Presolved: 86832 rows, 161794 columns, 4702351 nonzeros
Variable types: 0 continuous, 161794 integer (161793 binary)

Deterministic concurrent LP optimizer: dual simplex and barrier
Showing barrier log only...

Presolve removed 132 rows and 117 columns
Presolved: 86700 rows, 161677 columns, 4702072 nonzeros

Root barrier log...

Elapsed ordering time = 5s
Elapsed ordering time = 10s
Elapsed ordering time = 15s
Elapsed ordering time = 20s
Elapsed ordering time = 25s
Ordering time: 28.35s

Barrier statistics:
 AA' NZ     : 9.012e+06
 Factor NZ  : 7.880e+07 (roughly 700 MBytes of memory)
 Factor Ops : 3.194e+11 (roughly 13 seconds per iteration)
 Threads    : 1

                  Objective                Residual
Iter       Primal          Dual         Primal    Dual     Compl     Time
   0   1.63725553e+03 -6.93029357e+05  2.29e+04 1.04e-01  1.64e+02    75s
   1   1.28172885e+03 -7.18262274e+05  6.58e+03 1.31e-01  5.03e+01    97s
   2   1.11652537e+03 -6.24018627e+05  5.70e+02 4.87e-12  5.77e+00   119s
   3   1.10946428e+03 -3.95552803e+05  2.91e+02 3.02e-12  2.78e+00   140s
   4   1.10475575e+03 -1.86392587e+05  1.27e+02 3.98e-12  1.11e+00   162s
   5   1.10255716e+03 -8.10882404e+04  5.76e+01 3.33e-12  4.59e-01   184s
   6   1.10147705e+03 -3.06019935e+04  2.57e+01 2.23e-12  1.87e-01   207s
   7   1.10070633e+03 -1.30521398e+04  8.41e+00 2.04e-12  7.32e-02   229s
   8   1.10017081e+03 -8.23985509e+03  3.48e+00 1.42e-12  4.06e-02   251s
   9   1.09371376e+03 -3.78763546e+03  1.03e+00 6.48e-13  1.77e-02   273s
  10   1.01389284e+03 -6.20984815e+02  5.21e-02 2.70e-13  5.00e-03   297s
  11   9.64821826e+02  2.11909809e+02  1.31e-02 1.49e-13  2.27e-03   319s
  12   9.33988028e+02  4.35611942e+02  6.68e-03 1.12e-13  1.50e-03   340s
  13   9.26071698e+02  6.07599223e+02  5.28e-03 6.64e-14  9.57e-04   361s
  14   9.15138967e+02  6.93271060e+02  3.09e-03 4.24e-14  6.66e-04   387s
  15   8.82316655e+02  7.92991665e+02  1.21e-03 5.66e-14  2.68e-04   410s
  16   8.64151047e+02  8.21746377e+02  4.73e-04 6.83e-14  1.27e-04   434s
  17   8.57876371e+02  8.33691932e+02  3.01e-04 8.05e-14  7.26e-05   456s
  18   8.53846315e+02  8.37752851e+02  1.88e-04 5.91e-14  4.83e-05   477s
  19   8.50172328e+02  8.41814411e+02  8.51e-05 3.15e-14  2.51e-05   500s
  20   8.48892430e+02  8.43986561e+02  5.50e-05 4.97e-14  1.47e-05   523s
  21   8.47686448e+02  8.44896614e+02  2.76e-05 4.63e-14  8.37e-06   545s
  22   8.46870274e+02  8.45681261e+02  9.92e-06 5.32e-14  3.57e-06   568s
  23   8.46585192e+02  8.45935623e+02  4.90e-06 5.84e-14  1.95e-06   590s
  24   8.46509991e+02  8.46084999e+02  3.73e-06 4.15e-14  1.28e-06   612s
  25   8.46394008e+02  8.46164865e+02  1.98e-06 4.48e-14  6.88e-07   634s
  26   8.46289598e+02  8.46237035e+02  4.09e-07 5.01e-14  1.58e-07   659s
  27   8.46269159e+02  8.46247328e+02  1.61e-07 3.78e-14  6.55e-08   683s
  28   8.46262460e+02  8.46252269e+02  8.25e-08 8.53e-14  3.06e-08   704s
  29   8.46258975e+02  8.46253929e+02  4.30e-08 3.93e-14  1.51e-08   726s
  30   8.46255293e+02  8.46254826e+02  2.33e-09 4.06e-14  1.40e-09   751s
  31   8.46255080e+02  8.46254907e+02  9.69e-09 4.70e-14  5.20e-10   776s
  32   8.46255016e+02  8.46254931e+02  5.85e-09 5.86e-14  2.56e-10   798s
  33   8.46254986e+02  8.46254958e+02  7.53e-09 5.79e-14  8.35e-11   821s
  34   8.46254979e+02  8.46254961e+02  7.05e-09 3.84e-14  5.15e-11   843s
  35   8.46254972e+02  8.46254965e+02  6.02e-09 6.68e-14  1.98e-11   867s

Barrier solved model in 35 iterations and 866.93 seconds
Optimal objective 8.46254972e+02


Root crossover log...

   42332 variables added to crossover basis                      870s

   44153 DPushes remaining with DInf 6.4302129e+01               871s
   12464 DPushes remaining with DInf 4.3763323e+01               875s
    2372 DPushes remaining with DInf 2.6529838e+01               880s
      12 DPushes remaining with DInf 7.5698237e+02               886s
       0 DPushes remaining with DInf 7.2668204e+02               886s

   15422 PPushes remaining with PInf 5.3095970e-04               886s
    7752 PPushes remaining with PInf 2.2174952e-03               893s
    4183 PPushes remaining with PInf 2.7371543e-03               896s
     995 PPushes remaining with PInf 6.9952174e-03               902s
       0 PPushes remaining with PInf 0.0000000e+00               904s

  Push phase complete: Pinf 0.0000000e+00, Dinf 1.0143200e+03    904s


Root simplex log...

Iteration    Objective       Primal Inf.    Dual Inf.      Time
   59525    8.4625497e+02   0.000000e+00   1.014320e+03    904s
   59815    8.4625497e+02   0.000000e+00   8.371499e+02    907s
   60025    8.4625497e+02   0.000000e+00   5.501368e+02    910s
   60505    8.4625496e+02   0.000000e+00   1.305729e+03    916s
   60845    8.4625496e+02   0.000000e+00   1.119352e+04    922s
   61035    8.4625496e+02   0.000000e+00   1.266827e+03    926s
   61395    8.4625495e+02   0.000000e+00   1.710662e+02    932s
   61575    8.4625495e+02   0.000000e+00   1.215202e+02    935s
   61965    8.4625495e+02   0.000000e+00   4.831474e+02    941s
   62385    8.4625495e+02   0.000000e+00   5.321669e+02    948s
   62555    8.4625495e+02   0.000000e+00   5.755582e+02    951s
   62905    8.4625495e+02   0.000000e+00   4.323914e+01    957s
   63265    8.4625495e+02   0.000000e+00   1.083577e+02    963s
   63465    8.4625494e+02   0.000000e+00   5.029489e+01    966s
   63865    8.4625494e+02   0.000000e+00   1.107873e+01    972s
   64085    8.4625494e+02   0.000000e+00   3.769296e-01    975s
   64297    8.4625497e+02   0.000000e+00   0.000000e+00    980s
   64297    8.4625497e+02   0.000000e+00   0.000000e+00    980s
Concurrent spin time: 0.00s

Solved with barrier

Root relaxation: objective 8.462550e+02, 64297 iterations, 961.03 seconds
Total elapsed time = 1343.52s
Total elapsed time = 1382.16s
Total elapsed time = 1407.89s
Total elapsed time = 1446.94s

    Nodes    |    Current Node    |     Objective Bounds      |     Work
 Expl Unexpl |  Obj  Depth IntInf | Incumbent    BestBd   Gap | It/Node Time

     0     0  846.25497    0 22495          -  846.25497      -     - 1472s
     0     0          -    0               -  846.25497      -     - 7200s

Cutting planes:
  Clique: 10
  Zero half: 10

Explored 1 nodes (420390 simplex iterations) in 7200.04 seconds
Thread count was 4 (of 4 available processors)

Solution count 0

Time limit reached
Best objective -, best bound 8.470000000000e+02, gap -

Unable to retrieve attribute 'X'

